slcomp18/bench-smt2/qf_shlid_entl/nll-vc14.smt2
(set-logic QF_SHLID)

(set-info :source |
C. Enea, O. Lengal, M. Sighireanu, and T. Vojnar
[Compositional Entailment Checking for a Fragment of Separation Logic]
http://www.liafa.univ-paris-diderot.fr/spen
|)
(set-info :smt-lib-version 2.0)
(set-info :category "crafted")
(set-info :status sat)


; Sorts for locations, one by cell sort
(declare-sort RefNLL_lvl1_t 0)
(declare-sort RefNLL_lvl2_t 0)

; Types of cells in the heap

(declare-datatypes (
	(NLL_lvl1_t 0)
	(NLL_lvl2_t 0)
	) (
	((c_NLL_lvl1_t (next1 RefNLL_lvl1_t) ))
	((c_NLL_lvl2_t (next2 RefNLL_lvl2_t) (down RefNLL_lvl1_t) ))
	)
)

; Type of heap

(declare-heap (RefNLL_lvl1_t NLL_lvl1_t) (RefNLL_lvl2_t NLL_lvl2_t) 
)

(define-fun-rec lso ((in RefNLL_lvl1_t)(out RefNLL_lvl1_t)) Bool
	(or 
		(and 
			(= in out)
			(_ emp RefNLL_lvl2_t NLL_lvl2_t)
		)

		(exists ((u RefNLL_lvl1_t))
	 
		(and 
			(distinct in out)
		(sep 
			(pto in (c_NLL_lvl1_t u ))
			(lso u out )
		)

		)

		)

	)
)

(define-fun-rec nll ((in RefNLL_lvl2_t)(out RefNLL_lvl2_t)(boundary RefNLL_lvl1_t)) Bool
	(or 
		(and 
			(= in out)
			(_ emp RefNLL_lvl2_t NLL_lvl2_t)
		)

		(exists ((u RefNLL_lvl2_t)(Z1 RefNLL_lvl1_t))
	 
		(and 
			(distinct in out)
		(sep 
			(pto in (c_NLL_lvl2_t u Z1 ))
			(lso Z1 boundary )
			(nll u out boundary )
		)

		)

		)

	)
)


(check-sat) 
;; variables
(declare-const x1 RefNLL_lvl2_t)
(declare-const x1_1 RefNLL_lvl1_t)
(declare-const x2 RefNLL_lvl2_t)
(declare-const x2_1 RefNLL_lvl1_t)

(assert 
		(sep 
			(pto x1 (c_NLL_lvl2_t x2 x1_1 ))
			(pto x1_1 (c_NLL_lvl1_t x2_1 ))
			(pto x2 (c_NLL_lvl2_t (as nil RefNLL_lvl2_t) x2_1 ))
			(lso x2_1 (as nil RefNLL_lvl1_t) )
		)

)

(assert (not 
			(nll x1 (as nil RefNLL_lvl2_t) (as nil RefNLL_lvl1_t) )
))

(check-sat)
